 ! --------------------------------------------------- CP Optimizer 22.1.1.0 --
 ! Satisfiability problem - 26340 variables, 231320 constraints
 ! Presolve      : 16200 extractables eliminated
 ! TimeLimit            = 3600
 ! Workers              = 1
 ! Initial process time : 2.05s (2.03s extraction + 0.02s propagation)
 !  . Log search space  : 272741.2 (before), 272741.2 (after)
 !  . Memory usage      : 182.5 MB (before), 182.5 MB (after)
 ! Using sequential search.
 ! ----------------------------------------------------------------------------
 !               Branches  Non-fixed            Branch decision
                     1043      22375        F          presenceOf(copy_bus_parking:28_0)
                     2000      14115                   presenceOf(copy_bus_parking:2_209)
                     3000       9558                   presenceOf(copy_lane_parking:2_39)
                     4000       9561                  !presenceOf(copy_bus_parking:21_196)
                     5000       9561        F         !presenceOf(copy_bus_parking:26_260)
                     6000       9622                   presenceOf(copy_lane_parking:4_85)
                     7000       9466                   presenceOf(copy_bus_parking:18_108)
                     8000       9468                  !presenceOf(copy_trips:23_40)
                     9000      18294                   presenceOf(copy_bus_parking:8_135)
                    10000       9465                   presenceOf(copy_lane_parking:3_183)
                    11000      11042        F          presenceOf(copy_bus_parking:11_25)
                    12000      11042                   presenceOf(copy_lane_parking:3_183)
                    13000      17021                   presenceOf(copy_trips:10_146)
                    14000      11407                  !presenceOf(copy_bus_parking:29_25)
                    15000      11032                   presenceOf(copy_lane_parking:4_78)
                    16000      15705                  !presenceOf(copy_bus_parking:5_1)
                    17000      15616                   presenceOf(copy_bus_parking:2_247)
                    18000      17100           1060  = startOf(charge:11_53)
                    19000      18397                   presenceOf(copy_lane_parking:3_154)
                    20000       9625        F         !presenceOf(copy_trips:16_0)
 ! Time = 16.16s, Average fail depth = 333, Memory usage = 554.2 MB
 !               Branches  Non-fixed            Branch decision
                    21000      18852                  !presenceOf(copy_trips:22_18)
                    22000      18852                  !presenceOf(copy_trips:23_18)
                    23000      18852        F          presenceOf(copy_trips:26_23)
                    24000      11443        F          presenceOf(copy_trips:19_25)
                    25000      10956                   presenceOf(copy_lane_parking:3_98)
                    26000      13901                  !presenceOf(copy_trips:13_24)
                    27000      12357        F         !presenceOf(copy_bus_parking:6_55)
                    28000      12357        F          presenceOf(copy_bus_parking:18_53)
                    29000      12448                   presenceOf(copy_lane_parking:3_170)
                    30000      22031                  !presenceOf(copy_bus_parking:18_28)
                    31000      18092                   presenceOf(copy_lane_parking:1_237)
                    32000       9631        F          presenceOf(copy_trips:2_81)
                    33000      18435        F          presenceOf(copy_trips:17_81)
                    34000      18438        F          presenceOf(copy_trips:20_81)
                    35000      18435        F          presenceOf(copy_trips:22_81)
                    36000      18443                   presenceOf(copy_lane_parking:2_200)
                    37000      17134                  !presenceOf(copy_bus_parking:13_266)
                    38000      16923                   presenceOf(copy_bus_parking:11_3)
                    39000      18392                  !presenceOf(copy_bus_parking:15_18)
                    40000      18392                  !presenceOf(copy_trips:7_17)
 ! Time = 30.74s, Average fail depth = 338, Memory usage = 554.2 MB
 !               Branches  Non-fixed            Branch decision
                    41000      21289                   presenceOf(copy_lane_parking:2_73)
                    42000      16920                   presenceOf(copy_trips:27_238)
                    43000      17079        F          presenceOf(copy_trips:19_32)
                    44000      20895        F          presenceOf(copy_trips:7_9)
                    45000      20868            247 != endOf(start_parking:12)
                    46000      19632                  !presenceOf(copy_trips:15_15)
                    47000      16935                   presenceOf(copy_lane_parking:2_86)
                    48000      10887                   presenceOf(copy_bus_parking:21_251)
                    49000       9628        F          presenceOf(copy_trips:17_3)
                    50000      17006                  !presenceOf(copy_bus_parking:23_266)
                    51000      17003                  !presenceOf(copy_bus_parking:16_266)
                    52000      17003                  !presenceOf(copy_bus_parking:18_266)
                    53000      17003                  !presenceOf(copy_bus_parking:8_266)
                    54000      17015                  !presenceOf(copy_trips:1_2)
                    55000      18437        F          presenceOf(copy_trips:0_30)
                    56000      18407        F          presenceOf(copy_bus_parking:19_23)
                    57000      18419        F          presenceOf(copy_trips:15_30)
                    58000      18404        F          presenceOf(copy_trips:19_30)
                    59000      18398        F          presenceOf(copy_bus_parking:0_23)
                    60000      18413                  !presenceOf(copy_trips:29_30)
 ! Time = 42.56s, Average fail depth = 326, Memory usage = 556.3 MB
 !               Branches  Non-fixed            Branch decision
                    61000      18389        F          presenceOf(copy_bus_parking:19_23)
                    62000      18422                  !presenceOf(copy_bus_parking:11_81)
                    63000      18425        F          presenceOf(copy_trips:0_30)
                    64000      18398        F          presenceOf(copy_bus_parking:13_23)
                    65000      18413        F          presenceOf(copy_trips:1_30)
                    66000      18407                  !presenceOf(copy_bus_parking:12_81)
                    67000      18428                  !presenceOf(copy_bus_parking:28_81)
                    68000      16941                  !presenceOf(copy_bus_parking:8_265)
                    69000      16947                   presenceOf(copy_lane_parking:1_196)
                    70000      16935                   presenceOf(copy_lane_parking:4_15)
                    71000       9473                   presenceOf(copy_lane_parking:0_104)
                    72000      23345                   presenceOf(copy_lane_parking:4_28)
                    73000      14250                  !presenceOf(copy_trips:2_39)
                    74000      14250                  !presenceOf(copy_trips:23_39)
                    75000      14262                  !presenceOf(copy_trips:0_39)
                    76000      14296        F          presenceOf(copy_trips:20_267)
                    77000      17107                  !presenceOf(copy_bus_parking:17_267)
                    78000      17035                   presenceOf(copy_lane_parking:1_242)
                    79000      14538        F          presenceOf(copy_bus_parking:1_0)
                    80000      14487        F          presenceOf(copy_bus_parking:1_4)
 ! Time = 56.05s, Average fail depth = 332, Memory usage = 556.3 MB
 !               Branches  Non-fixed            Branch decision
                    81000      14502        F          presenceOf(copy_bus_parking:5_0)
                    82000       9561        F          presenceOf(copy_bus_parking:23_196)
                    83000       9561        F          presenceOf(copy_bus_parking:13_25)
                    84000      10972        F          presenceOf(copy_trips:17_265)
                    85000      16938        F          presenceOf(copy_trips:18_265)
                    86000      16938        F          presenceOf(copy_trips:4_267)
                    87000      16938                  !presenceOf(copy_trips:2_264)
                    88000      16938        F          presenceOf(copy_trips:8_265)
                    89000      16938        F          presenceOf(copy_trips:22_267)
                    90000      16938                   presenceOf(copy_trips:11_267)
                    91000      16941        F          presenceOf(copy_trips:6_267)
                    92000      16938        F          presenceOf(copy_trips:23_265)
                    93000      16938                  !presenceOf(copy_trips:22_264)
                    94000      16935                  !presenceOf(copy_trips:13_266)
                    95000      16935        F         !presenceOf(copy_trips:16_264)
                    96000      16938                  !presenceOf(copy_trips:4_266)
                    97000      16938                   presenceOf(copy_bus_parking:27_224)
                    98000      16935           1106  = startOf(charge:10_60)
                    99000      14477                  !presenceOf(copy_trips:17_3)
                     100k      19457        F          presenceOf(copy_bus_parking:21_25)
 ! Time = 63.80s, Average fail depth = 339, Memory usage = 556.9 MB
 !               Branches  Non-fixed            Branch decision
                     101k       9461                   presenceOf(copy_lane_parking:4_136)
                     102k       9474                   presenceOf(copy_lane_parking:4_170)
                     103k       9456        F         !presenceOf(copy_trips:1_182)
                     104k       9456                  !presenceOf(copy_trips:14_182)
                     105k       9456                  !presenceOf(copy_trips:29_182)
                     106k       9456                  !presenceOf(copy_trips:16_75)
                     107k      11710        F          presenceOf(copy_bus_parking:29_190)
                     108k      16938                   presenceOf(copy_lane_parking:3_182)
                     109k      13175                  !presenceOf(copy_bus_parking:8_12)
                     110k      13101                  !presenceOf(copy_bus_parking:12_19)
                     111k      13124        F          presenceOf(copy_trips:4_30)
                     112k      13210        F          presenceOf(copy_trips:3_30)
                     113k      13124                  !presenceOf(copy_trips:2_1)
                     114k      13124        F          presenceOf(copy_trips:1_39)
                     115k      13175        F          presenceOf(copy_bus_parking:25_19)
                     116k      13181        F         !presenceOf(copy_bus_parking:21_19)
                     117k      13124        F          presenceOf(copy_trips:16_30)
                     118k      13210                  !presenceOf(copy_trips:25_28)
                     119k      13124        F          presenceOf(copy_trips:9_39)
                     120k      13204        F          presenceOf(copy_bus_parking:24_19)
 ! Time = 73.23s, Average fail depth = 350, Memory usage = 565.4 MB
 !               Branches  Non-fixed            Branch decision
                     121k      13199                   presenceOf(copy_lane_parking:1_138)
                     122k      15272                  !presenceOf(copy_trips:4_3)
                     123k      15272                  !presenceOf(copy_trips:10_2)
                     124k      16932                  !presenceOf(copy_trips:1_265)
                     125k      16932        F          presenceOf(copy_bus_parking:25_266)
                     126k      16932        F          presenceOf(copy_bus_parking:16_266)
                     127k      16935                   presenceOf(copy_lane_parking:3_19)
                     128k      15931                  !presenceOf(copy_bus_parking:28_2)
                     129k      15888                   presenceOf(copy_lane_parking:1_175)
                     130k      18859        F          presenceOf(copy_trips:14_56)
                     131k      15912                   presenceOf(copy_lane_parking:4_185)
                     132k      18304                   presenceOf(copy_bus_parking:4_125)
                     133k       9453                   presenceOf(copy_lane_parking:1_65)
                     134k      23803        F          presenceOf(copy_trips:8_0)
                     135k      23803        F          presenceOf(copy_trips:14_0)
                     136k      23791        F          presenceOf(copy_bus_parking:11_4)
                     137k      17827        F          presenceOf(copy_trips:2_81)
                     138k       9637        F          presenceOf(copy_bus_parking:17_186)
                     139k       9379        F          presenceOf(copy_bus_parking:26_264)
                     140k      17107                  !presenceOf(copy_trips:0_79)
 ! Time = 85.74s, Average fail depth = 346, Memory usage = 565.4 MB
 !               Branches  Non-fixed            Branch decision
                     141k      18542                   presenceOf(copy_lane_parking:0_4)
                     142k      18686                  !presenceOf(copy_trips:3_1)
                     143k      19073                  !presenceOf(copy_trips:20_37)
                     144k      19071                  !presenceOf(copy_lane_parking:3_62)
                     145k      19070        F          presenceOf(copy_trips:17_37)
                     146k      19079                  !presenceOf(copy_trips:3_2)
                     147k      23619                   presenceOf(copy_trips:20_2)
                     148k      23619                  !presenceOf(copy_trips:17_2)
                     149k      23666                  !presenceOf(copy_trips:17_6)
                     150k      23664                  !presenceOf(copy_trips:10_6)
                     151k      23399                  !presenceOf(copy_trips:3_6)
                     152k      23399        F          presenceOf(copy_trips:15_6)
                     153k      23399                  !presenceOf(copy_trips:3_2)
                     154k      23442                  !presenceOf(copy_bus_parking:5_0)
                     155k      23440                   presenceOf(copy_trips:20_2)
                     156k      23369        F          presenceOf(copy_trips:2_1)
                     157k      23454        F          presenceOf(copy_trips:2_1)
                     158k      23417                  !presenceOf(copy_trips:2_6)
                     159k      12356                   presenceOf(copy_bus_parking:27_187)
                     160k       9456        F         !presenceOf(copy_trips:10_0)
 ! Time = 100.05s, Average fail depth = 332, Memory usage = 565.4 MB
 !               Branches  Non-fixed            Branch decision
                     161k      20789                  !presenceOf(copy_trips:19_9)
                     162k      20828                   presenceOf(copy_trips:16_6)
                     163k      17023                  !presenceOf(copy_bus_parking:18_266)
                     164k      17101                   presenceOf(copy_lane_parking:4_25)
                     165k      16938                  !presenceOf(copy_trips:17_7)
                     166k      18950                  !presenceOf(copy_trips:3_4)
                     167k      11310        F          presenceOf(copy_trips:14_25)
                     168k      11310                   presenceOf(copy_lane_parking:3_184)
                     169k      17099                   presenceOf(copy_lane_parking:3_189)
                     170k      17292        F          presenceOf(copy_bus_parking:21_262)
                     171k      17292        F          presenceOf(copy_bus_parking:2_262)
                     172k      17292        F          presenceOf(copy_bus_parking:27_262)
                     173k      17292        F          presenceOf(copy_trips:10_49)
                     174k      13653                   presenceOf(copy_lane_parking:0_206)
                     175k      21919        F         !presenceOf(copy_trips:6_24)
                     176k      21919        F         !presenceOf(copy_trips:6_24)
                     177k      21919                  !presenceOf(copy_trips:12_24)
                     178k      19073        F          presenceOf(copy_trips:20_37)
                     179k      19070        F          presenceOf(copy_bus_parking:10_8)
                     180k      21326        F          presenceOf(copy_bus_parking:9_258)
 ! Time = 112.17s, Average fail depth = 329, Memory usage = 565.4 MB
 !               Branches  Non-fixed            Branch decision
                     181k      16947                   presenceOf(copy_lane_parking:2_203)
                     182k      11020                  !presenceOf(copy_bus_parking:3_40)
                     183k      11020        F          presenceOf(copy_bus_parking:0_18)
                     184k      11020                  !presenceOf(copy_bus_parking:1_18)
                     185k      11020                  !presenceOf(copy_bus_parking:0_18)
                     186k      13338                  !presenceOf(copy_trips:5_8)
                     187k      13335                  !presenceOf(copy_trips:15_12)
                     188k      13314                  !presenceOf(copy_trips:2_8)
                     189k      13333                  !presenceOf(copy_trips:17_8)
                     190k      13333                  !presenceOf(copy_trips:2_8)
                     191k      13361        F          presenceOf(copy_trips:13_12)
                     192k      13356                  !presenceOf(copy_trips:15_12)
                     193k      13329        F          presenceOf(copy_trips:4_3)
                     194k      13329        F          presenceOf(copy_trips:4_3)
                     195k      13289                  !presenceOf(copy_trips:0_8)
                     196k      13277                  !presenceOf(copy_trips:4_8)
                     197k      13300                  !presenceOf(copy_bus_parking:5_10)
                     198k      13301                  !presenceOf(copy_trips:5_3)
                     199k       9631        F          presenceOf(copy_trips:24_260)
                     200k       9631        F          presenceOf(copy_bus_parking:1_196)
 ! Time = 120.97s, Average fail depth = 337, Memory usage = 565.4 MB
 !               Branches  Non-fixed            Branch decision
                     201k      17083        F          presenceOf(copy_bus_parking:2_196)
                     202k      17083                  !presenceOf(copy_bus_parking:12_266)
                     203k      17083        F          presenceOf(copy_bus_parking:5_267)
                     204k      17101                  !presenceOf(copy_bus_parking:12_9)
                     205k      16938                   presenceOf(copy_lane_parking:0_104)
                     206k      16929        F          presenceOf(copy_trips:2_266)
                     207k      16929        F          presenceOf(copy_trips:15_266)
                     208k      16929        F          presenceOf(copy_trips:21_266)
                     209k      16932                  !presenceOf(copy_trips:12_266)
                     210k      16932                  !presenceOf(copy_trips:5_266)
                     211k      16929                  !presenceOf(copy_trips:15_266)
                     212k      16929                  !presenceOf(copy_trips:2_266)
                     213k      16926        F          presenceOf(copy_trips:8_266)
                     214k      16926        F          presenceOf(copy_trips:24_266)
                     215k      16929                  !presenceOf(copy_trips:8_264)
                     216k      16929        F          presenceOf(copy_trips:18_266)
                     217k      16932                  !presenceOf(copy_trips:22_264)
                     218k      16926        F          presenceOf(copy_trips:26_266)
                     219k      16926        F          presenceOf(copy_bus_parking:0_262)
                     220k      16926                  !presenceOf(copy_trips:1_264)
 ! Time = 127.69s, Average fail depth = 339, Memory usage = 565.4 MB
 !               Branches  Non-fixed            Branch decision
                     221k      16926                  !presenceOf(copy_trips:13_265)
                     222k      16926                  !presenceOf(copy_trips:9_265)
                     223k      16929                  !presenceOf(copy_trips:18_265)
                     224k      16929        F          presenceOf(copy_trips:24_265)
                     225k      16932        F          presenceOf(copy_trips:3_265)
                     226k      16926        F          presenceOf(copy_trips:26_265)
                     227k      16929                  !presenceOf(copy_trips:26_265)
                     228k      16929                  !presenceOf(copy_trips:28_265)
                     229k      16929                  !presenceOf(copy_trips:21_265)
                     230k      16932                   presenceOf(copy_trips:27_266)
                     231k      16935        F          presenceOf(copy_trips:24_266)
                     232k      16929        F          presenceOf(copy_trips:20_266)
                     233k      16929                  !presenceOf(copy_trips:3_266)
                     234k      16929                  !presenceOf(copy_trips:1_265)
                     235k      16929                  !presenceOf(copy_trips:4_265)
                     236k      16932                  !presenceOf(copy_trips:18_265)
                     237k      16932        F          presenceOf(copy_trips:5_266)
                     238k      16929                  !presenceOf(copy_trips:8_265)
                     239k      16929                  !presenceOf(copy_trips:28_265)
                     240k      16929                  !presenceOf(copy_trips:24_266)
 ! Time = 133.68s, Average fail depth = 341, Memory usage = 565.4 MB
 !               Branches  Non-fixed            Branch decision
                     241k      16932                  !presenceOf(copy_trips:8_264)
                     242k      16932                  !presenceOf(copy_trips:19_265)
                     243k      16929        F          presenceOf(copy_trips:25_266)
                     244k      16929                  !presenceOf(copy_trips:22_266)
                     245k      16929        F          presenceOf(copy_trips:10_266)
                     246k      16929        F          presenceOf(copy_trips:15_265)
                     247k      16929        F          presenceOf(copy_trips:24_266)
                     248k      16926        F          presenceOf(copy_trips:13_265)
                     249k      16926        F          presenceOf(copy_trips:20_266)
                     250k      16926                  !presenceOf(copy_trips:1_265)
                     251k      16926        F          presenceOf(copy_trips:25_266)
                     252k      16929                   presenceOf(copy_trips:13_265)
                     253k      16929                  !presenceOf(copy_trips:5_265)
                     254k      16926        F          presenceOf(copy_trips:0_265)
                     255k      16926        F          presenceOf(copy_bus_parking:4_267)
                     256k      16929        F          presenceOf(copy_trips:25_266)
                     257k      16932                  !presenceOf(copy_trips:1_8)
                     258k      18611        F          presenceOf(copy_trips:23_0)
                     259k      15849                   presenceOf(copy_trips:25_2)
                     260k      15849                  !presenceOf(copy_trips:17_264)
 ! Time = 141.09s, Average fail depth = 342, Memory usage = 565.4 MB
 !               Branches  Non-fixed            Branch decision
                     261k      11425                   presenceOf(copy_lane_parking:0_236)
                     262k       9472                   presenceOf(copy_lane_parking:4_131)
                     263k      11537                   presenceOf(copy_bus_parking:11_70)
                     264k      11023                   presenceOf(copy_lane_parking:0_127)
                     265k      17150        F          presenceOf(copy_bus_parking:4_262)
                     266k      16926        F          presenceOf(copy_bus_parking:8_267)
                     267k      16926                  !presenceOf(copy_trips:17_266)
                     268k      16926        F          presenceOf(copy_bus_parking:25_264)
                     269k       9911                   presenceOf(copy_bus_parking:21_257)
                     270k       9631        F          presenceOf(copy_trips:14_41)
                     271k      11949                  !presenceOf(copy_trips:23_97)
                     272k      11407                   presenceOf(copy_lane_parking:1_22)
                     273k      12217        F          presenceOf(copy_trips:25_150)
                     274k       2177        F          presenceOf(copy_trips:7_228)
 *                   274k  148.88s                   -
 ! ----------------------------------------------------------------------------
 ! Search completed, 1 solution found.
 ! ----------------------------------------------------------------------------
 ! Number of branches     : 274370
 ! Number of fails        : 113001
 ! Total memory usage     : 631.9 MB (615.8 MB CP Optimizer + 16.1 MB Concert)
 ! Time spent in solve    : 148.88s (146.86s engine + 2.03s extraction)
 ! Search speed (br. / s) : 1868.4
 ! ----------------------------------------------------------------------------
